NAME lp_typeD_822
OBJSENSE MAX
ROWS
 N  OBJ
 L  c0      
 G  c1      
 G  c2      
 L  c_key_upper
 G  c_key_lower
 G  _chain_constr_1
 G  _chain_constr_2
 G  _chain_constr_3
 G  _chain_cycle
COLUMNS
    x0        OBJ       1.3486519301897844e+00
    x0        c0        8.3436441327207422e-01
    x0        c1        0.745038122341354
    x0        c2        1.5499203854721524e+00
    x0        c_key_upper  1.5041890624518088e+00
    x0        c_key_lower  1.5041890624518088e+00
    x1        OBJ       7.5757408643735680e-01
    x1        c0        9.4888517333445255e-01
    x1        c1        1.8273158842142019e+00
    x1        c2        1.2724597901609909e+00
    x1        c_key_upper  1.7810221427810153e+00
    x1        c_key_lower  1.7810221427810153e+00
    x2        OBJ       1.2108623482501344e+00
    x2        c0        1.0915260249645304e+00
    x2        c1        0.899059754294314
    x2        c2        7.5210143954227493e-01
    x2        c_key_upper  1.1807242748360052e+00
    x2        c_key_lower  1.1807242748360052e+00
    x3        OBJ       1.4052411202847832e+00
    x3        c0        6.1395118152111494e-01
    x3        c1        6.7471651218749573e-01
    x3        c2        9.8151661924534184e-01
    x3        c_key_upper  1.0912634359515685e+00
    x3        c_key_lower  1.0912634359515685e+00
    x4        OBJ       1.0514455072374416e+00
    x4        c0        5.3941516224997765e-01
    x4        c1        5.5269996319528381e-01
    x4        c2        1.7810776993907971e+00
    x4        c_key_upper  1.9012872986854350e+00
    x4        c_key_lower  1.9012872986854350e+00
    x5        OBJ       1.4687028081094837e+00
    x5        c0        1.4091888250049440e+00
    x5        c1        7.8679534332898582e-01
    x5        c2        0.848103126904207
    x5        c_key_upper  1.3137525756958994e+00
    x5        c_key_lower  1.3137525756958994e+00
    x6        OBJ       9.6127805858358151e-01
    x6        c0        1.0406006581311398e+00
    x6        c1        8.1962128863913986e-01
    x6        c2        1.8686177908280710e+00
    x6        c_key_upper  1.5558489862993556e+00
    x6        c_key_lower  1.5558489862993556e+00
    x7        OBJ       1.25883560419097
    x7        c0        1.3384489068398349e+00
    x7        c1        1.5408192538408820e+00
    x7        c2        1.0616827012132961e+00
    x7        c_key_upper  1.9849310156591327e+00
    x7        c_key_lower  1.9849310156591327e+00
    _chain_var_0  _chain_constr_1  -1
    _chain_var_0  _chain_cycle  1
    _chain_var_1  _chain_constr_1  1
    _chain_var_1  _chain_constr_2  -1
    _chain_var_2  _chain_constr_2  1
    _chain_var_2  _chain_constr_3  -1
    _chain_var_3  _chain_constr_3  1
    _chain_var_3  _chain_cycle  -1
RHS
    RHS1      c0        3.2430562785651759e+01
    RHS1      c1        1.3380377239208260e+01
    RHS1      c2        1.3899719263983979e+01
    RHS1      c_key_upper  61.5650939618011
    RHS1      c_key_lower  3.0782546980900548e+01
    RHS1      _chain_constr_1  10
    RHS1      _chain_constr_2  10
    RHS1      _chain_constr_3  10
    RHS1      _chain_cycle  10
BOUNDS
 UP BND1      x0        10
 UP BND1      x1        10
 UP BND1      x2        10
 UP BND1      x3        10
 UP BND1      x4        10
 UP BND1      x5        10
 UP BND1      x6        10
 UP BND1      x7        10
 UP BND1      _chain_var_0  100
 UP BND1      _chain_var_1  100
 UP BND1      _chain_var_2  100
 UP BND1      _chain_var_3  100
ENDATA
